instances/p2/p2_6_20-4.dzn
Alphabet = {A,C,G,T};
ns = 6;
nc = 20;
neighbours = [| I(T),I(C),I(G),I(C),I(G),I(C),I(T),I(G),I(T),I(C),I(C),I(C),I(A),Null,Null,Null,Null,Null,Null,Null | I(G),I(T),I(T),I(A),Null,Null,Null,Null,Null,Null,Null,Null,Null,Null,Null,Null,Null,Null,Null,Null | I(G),I(A),I(G),I(C),I(G),Null,Null,Null,Null,Null,Null,Null,Null,Null,Null,Null,Null,Null,Null,Null | I(C),I(A),I(T),I(G),I(T),I(T),I(C),I(C),I(A),I(T),I(T),I(A),I(C),I(C),I(C),I(G),I(A),I(G),I(T),I(C) | I(A),I(T),Null,Null,Null,Null,Null,Null,Null,Null,Null,Null,Null,Null,Null,Null,Null,Null,Null,Null | I(T),I(C),I(T),I(T),I(C),I(A),I(C),I(C),Null,Null,Null,Null,Null,Null,Null,Null,Null,Null,Null,Null |];
